objective value:                                  -78
t_x2                                                1 	(obj:-100)
t_y2_231                                            1 	(obj:1)
t_y2_170                                            1 	(obj:1)
t_y2_369                                            1 	(obj:1)
t_y2_362                                            1 	(obj:1)
t_y2_63                                             1 	(obj:1)
t_y2_60                                             1 	(obj:1)
t_y2_416                                            1 	(obj:1)
t_y2_132                                            1 	(obj:1)
t_y2_326                                            1 	(obj:1)
t_y2_274                                            1 	(obj:1)
t_y2_275                                            1 	(obj:1)
t_y2_247                                            1 	(obj:1)
t_y2_103                                            1 	(obj:1)
t_y2_382                                            1 	(obj:1)
t_y2_23                                             1 	(obj:1)
t_y2_49                                             1 	(obj:1)
t_y2_215                                            1 	(obj:1)
t_y2_42                                             1 	(obj:1)
t_y2_236                                            1 	(obj:1)
t_y2_18                                             1 	(obj:1)
t_y2_262                                            1 	(obj:1)
t_y2_351                                            1 	(obj:1)
